865
11
122110
1080
 0 1 1 871 110  11 0 20 49 52 50 51 48 45 46 47 0
 0 1 1 907 200  11 0 32 33 31 35 37 38 39 36 34 0
 0 1 1 496 60  7 0 41 40 44 42 43 0
 0 1 1 821 200  10 0 57 59 60 58 56 53 54 55 0
 0 1 1 957 150  12 0 67 65 62 74 72 61 64 68 66 69 0
 0 1 1 1027 200  12 0 81 78 76 71 70 73 77 79 80 63 0
 0 1 1 977 170  12 0 91 89 88 85 84 82 83 86 87 90 0
 0 1 1 998 200  12 0 98 96 95 94 92 93 97 100 99 3 0
 0 1 1 955 160  12 0 5 7 8 11 9 6 4 2 1 75 0
 0 1 1 906 200  11 0 10 12 14 16 15 19 18 17 13 0
 0 1 1 950 160  12 0 23 26 28 30 29 27 25 24 22 21 0
